DIMACS_lns/graph-1000-974.col
p edge 1000 1846
e 1 473
e 1 437
e 1 202
e 1 661
e 1 276
e 1 730
e 1 971
e 1 184
e 2 302
e 2 359
e 2 466
e 2 514
e 3 933
e 3 776
e 3 955
e 3 430
e 3 858
e 3 548
e 4 324
e 4 234
e 4 326
e 5 974
e 5 601
e 5 462
e 6 197
e 6 497
e 6 980
e 8 520
e 8 482
e 8 118
e 8 571
e 9 475
e 9 64
e 9 176
e 9 638
e 9 302
e 10 877
e 10 61
e 10 51
e 10 109
e 11 731
e 11 771
e 11 395
e 11 331
e 12 528
e 12 827
e 12 424
e 12 299
e 13 521
e 13 811
e 13 190
e 13 632
e 13 955
e 14 160
e 14 30
e 14 172
e 14 683
e 14 658
e 15 173
e 15 509
e 15 210
e 15 658
e 15 363
e 16 295
e 16 828
e 16 889
e 16 168
e 17 458
e 17 559
e 17 473
e 17 837
e 18 964
e 18 383
e 18 879
e 19 920
e 19 499
e 19 512
e 19 929
e 19 165
e 19 763
e 20 193
e 20 69
e 20 896
e 20 616
e 21 669
e 21 490
e 21 687
e 21 757
e 21 46
e 21 540
e 21 557
e 22 779
e 22 984
e 22 315
e 22 475
e 22 644
e 22 700
e 22 277
e 23 174
e 23 408
e 23 902
e 23 163
e 23 845
e 24 215
e 24 744
e 24 434
e 24 910
e 24 928
e 24 528
e 25 746
e 25 990
e 25 626
e 26 540
e 26 725
e 26 391
e 26 238
e 27 396
e 27 181
e 27 586
e 28 879
e 28 698
e 28 290
e 29 345
e 29 69
e 29 337
e 30 319
e 30 706
e 30 947
e 30 346
e 30 650
e 30 116
e 31 437
e 31 940
e 31 460
e 33 384
e 33 997
e 33 850
e 34 609
e 34 646
e 34 998
e 34 81
e 34 780
e 35 377
e 35 324
e 35 56
e 35 66
e 36 641
e 36 96
e 36 683
e 37 705
e 37 65
e 37 569
e 37 789
e 37 614
e 37 221
e 37 975
e 38 963
e 38 523
e 38 930
e 38 293
e 38 897
e 38 967
e 39 362
e 39 512
e 39 583
e 39 171
e 39 438
e 39 349
e 39 470
e 39 358
e 40 286
e 40 746
e 40 979
e 40 510
e 40 209
e 41 432
e 41 568
e 41 536
e 43 56
e 43 819
e 43 251
e 43 783
e 43 371
e 44 168
e 44 783
e 44 549
e 45 134
e 45 471
e 45 596
e 45 107
e 46 956
e 46 180
e 46 330
e 46 645
e 46 930
e 46 169
e 46 336
e 48 820
e 48 539
e 48 985
e 48 377
e 49 381
e 49 217
e 49 504
e 49 489
e 49 454
e 49 901
e 49 135
e 51 647
e 51 519
e 51 457
e 51 284
e 52 773
e 52 675
e 52 504
e 52 135
e 54 258
e 54 190
e 54 126
e 54 422
e 55 477
e 55 748
e 55 547
e 55 361
e 56 232
e 56 736
e 56 225
e 56 726
e 56 121
e 56 798
e 56 272
e 56 114
e 56 954
e 56 827
e 56 418
e 57 995
e 57 538
e 57 407
e 57 384
e 57 392
e 58 957
e 58 126
e 58 927
e 60 940
e 60 621
e 60 182
e 60 91
e 60 839
e 60 530
e 61 825
e 61 665
e 61 845
e 62 304
e 62 330
e 62 279
e 62 403
e 62 589
e 62 784
e 62 653
e 62 534
e 62 573
e 64 111
e 64 407
e 64 882
e 64 545
e 65 417
e 65 294
e 65 253
e 65 103
e 65 934
e 66 450
e 66 519
e 66 281
e 66 815
e 66 892
e 66 852
e 66 530
e 67 986
e 67 601
e 67 269
e 69 253
e 69 448
e 69 266
e 69 656
e 69 901
e 69 464
e 70 943
e 70 967
e 70 873
e 70 880
e 70 317
e 72 353
e 72 896
e 72 419
e 72 960
e 72 134
e 72 97
e 72 165
e 73 516
e 73 416
e 73 482
e 74 260
e 74 450
e 74 980
e 75 259
e 75 581
e 75 862
e 76 731
e 76 220
e 76 332
e 76 424
e 76 857
e 77 684
e 77 660
e 77 960
e 78 537
e 78 584
e 78 396
e 78 488
e 78 454
e 78 763
e 80 214
e 80 821
e 80 517
e 80 725
e 81 337
e 81 143
e 81 287
e 81 963
e 85 562
e 85 763
e 85 657
e 85 496
e 85 839
e 87 346
e 87 345
e 87 276
e 87 683
e 88 839
e 88 628
e 88 663
e 88 411
e 88 113
e 91 221
e 91 276
e 91 920
e 91 184
e 91 521
e 94 477
e 94 364
e 94 238
e 94 322
e 95 749
e 95 742
e 95 227
e 96 475
e 96 102
e 97 707
e 97 180
e 97 451
e 98 729
e 98 354
e 98 378
e 98 596
e 98 740
e 99 543
e 99 207
e 99 835
e 99 476
e 99 645
e 100 534
e 100 814
e 100 102
e 101 176
e 101 804
e 101 448
e 101 456
e 102 421
e 102 352
e 102 283
e 102 476
e 102 824
e 103 374
e 103 200
e 103 330
e 103 973
e 103 264
e 105 476
e 105 524
e 105 949
e 105 461
e 105 207
e 107 572
e 107 448
e 107 238
e 109 741
e 109 997
e 109 656
e 110 740
e 110 456
e 110 933
e 111 659
e 111 267
e 111 791
e 111 298
e 111 395
e 113 349
e 113 803
e 113 620
e 114 478
e 114 626
e 114 543
e 114 174
e 114 805
e 114 160
e 115 355
e 115 963
e 115 457
e 115 922
e 115 352
e 116 215
e 116 423
e 116 444
e 116 388
e 118 389
e 118 180
e 118 783
e 118 306
e 118 417
e 119 473
e 119 492
e 119 938
e 119 197
e 121 604
e 121 331
e 121 846
e 123 566
e 123 188
e 123 552
e 123 370
e 123 720
e 123 335
e 123 472
e 123 879
e 123 810
e 123 792
e 124 763
e 124 599
e 124 193
e 124 360
e 124 345
e 125 160
e 125 493
e 125 168
e 125 508
e 125 715
e 126 896
e 126 266
e 126 516
e 126 652
e 129 437
e 129 264
e 129 912
e 129 843
e 129 287
e 129 384
e 130 967
e 130 374
e 130 631
e 130 411
e 130 144
e 130 697
e 130 383
e 134 955
e 134 258
e 134 933
e 134 508
e 134 294
e 134 771
e 134 589
e 134 758
e 134 876
e 135 157
e 135 148
e 135 803
e 135 485
e 137 590
e 137 347
e 137 651
e 137 672
e 139 589
e 139 330
e 139 581
e 140 509
e 140 304
e 140 690
e 140 931
e 140 683
e 140 217
e 140 586
e 140 410
e 141 852
e 141 345
e 141 761
e 141 716
e 143 564
e 143 471
e 144 579
e 144 620
e 144 892
e 144 876
e 146 274
e 146 246
e 146 386
e 147 715
e 147 858
e 147 960
e 148 811
e 148 915
e 148 231
e 148 184
e 148 505
e 148 771
e 152 245
e 152 432
e 152 206
e 153 581
e 153 220
e 153 678
e 154 363
e 154 293
e 154 742
e 154 701
e 154 927
e 154 780
e 155 649
e 155 974
e 155 445
e 157 994
e 157 620
e 157 774
e 157 261
e 157 765
e 160 280
e 160 400
e 160 218
e 160 964
e 160 920
e 160 439
e 161 532
e 161 978
e 161 868
e 161 893
e 161 384
e 161 306
e 162 318
e 162 218
e 162 391
e 162 171
e 163 985
e 163 804
e 163 806
e 163 671
e 165 850
e 166 723
e 166 421
e 166 664
e 168 505
e 168 585
e 168 891
e 168 830
e 168 227
e 168 521
e 169 925
e 169 830
e 170 707
e 170 519
e 170 406
e 170 294
e 170 791
e 171 432
e 171 303
e 171 496
e 171 775
e 172 331
e 172 685
e 172 530
e 172 599
e 172 946
e 172 457
e 173 253
e 173 724
e 173 960
e 173 438
e 174 741
e 174 879
e 174 729
e 174 337
e 174 399
e 176 928
e 180 964
e 180 399
e 181 195
e 181 300
e 181 595
e 181 270
e 182 856
e 182 251
e 183 260
e 183 410
e 183 819
e 183 316
e 183 535
e 183 395
e 183 548
e 184 343
e 184 286
e 184 302
e 184 961
e 184 770
e 184 428
e 185 748
e 185 648
e 185 657
e 188 398
e 188 934
e 189 567
e 189 770
e 189 209
e 190 979
e 190 403
e 190 960
e 190 392
e 190 875
e 190 779
e 192 519
e 192 576
e 192 220
e 192 826
e 192 406
e 193 906
e 194 209
e 194 653
e 194 245
e 195 300
e 195 956
e 195 506
e 196 891
e 196 690
e 196 733
e 196 533
e 196 925
e 196 570
e 197 619
e 197 573
e 197 918
e 197 205
e 198 500
e 198 445
e 198 720
e 199 686
e 199 272
e 199 387
e 199 728
e 200 299
e 200 413
e 200 825
e 200 287
e 200 290
e 200 687
e 201 607
e 201 668
e 201 730
e 201 217
e 202 637
e 202 542
e 202 561
e 202 589
e 204 297
e 204 807
e 204 896
e 204 446
e 205 662
e 205 793
e 205 527
e 205 855
e 205 881
e 205 676
e 206 643
e 206 565
e 206 664
e 206 693
e 206 670
e 206 877
e 207 881
e 209 947
e 209 347
e 209 265
e 210 378
e 210 358
e 210 706
e 210 313
e 210 275
e 210 565
e 210 555
e 211 583
e 211 275
e 211 532
e 211 747
e 211 425
e 214 728
e 214 345
e 215 434
e 215 496
e 215 828
e 215 689
e 216 706
e 216 804
e 216 504
e 216 451
e 217 928
e 217 843
e 217 516
e 217 877
e 217 265
e 218 808
e 218 731
e 218 535
e 219 232
e 219 668
e 219 964
e 219 530
e 220 392
e 220 967
e 220 535
e 221 391
e 222 792
e 222 521
e 222 690
e 222 909
e 222 961
e 223 433
e 223 452
e 223 363
e 224 930
e 224 902
e 224 514
e 225 712
e 225 383
e 225 664
e 226 967
e 226 382
e 226 632
e 226 813
e 227 500
e 227 926
e 229 535
e 229 744
e 229 668
e 230 936
e 230 601
e 230 397
e 231 827
e 231 509
e 231 412
e 231 973
e 232 697
e 232 324
e 234 984
e 234 419
e 234 295
e 234 297
e 234 354
e 236 857
e 236 261
e 236 358
e 238 745
e 238 985
e 238 312
e 238 940
e 238 644
e 238 349
e 239 842
e 239 245
e 239 777
e 239 893
e 240 694
e 240 316
e 240 702
e 240 277
e 240 320
e 244 319
e 244 927
e 244 380
e 244 826
e 244 268
e 245 727
e 245 514
e 245 940
e 245 576
e 245 728
e 245 646
e 245 595
e 245 320
e 245 856
e 246 571
e 246 952
e 246 356
e 246 846
e 248 343
e 248 852
e 248 384
e 248 449
e 248 590
e 248 864
e 248 310
e 248 398
e 248 397
e 251 675
e 251 385
e 251 985
e 251 351
e 252 620
e 252 812
e 252 981
e 252 583
e 253 678
e 253 452
e 253 881
e 253 567
e 254 810
e 254 461
e 254 765
e 257 468
e 257 827
e 257 539
e 258 779
e 258 523
e 258 695
e 259 338
e 259 789
e 259 275
e 260 577
e 260 283
e 260 561
e 260 697
e 260 757
e 260 304
e 260 738
e 261 926
e 261 402
e 264 356
e 264 468
e 265 539
e 265 701
e 265 434
e 265 476
e 266 702
e 266 933
e 267 960
e 267 663
e 267 608
e 267 937
e 268 362
e 268 746
e 268 462
e 269 980
e 269 484
e 269 312
e 270 391
e 270 901
e 270 438
e 272 409
e 272 771
e 272 943
e 272 579
e 272 351
e 272 879
e 273 316
e 273 694
e 273 723
e 274 909
e 274 749
e 275 632
e 275 631
e 275 296
e 275 361
e 275 549
e 275 744
e 275 514
e 275 298
e 276 853
e 276 686
e 276 424
e 277 654
e 277 696
e 277 589
e 279 989
e 279 506
e 280 583
e 280 469
e 280 658
e 280 739
e 281 473
e 281 500
e 281 350
e 283 380
e 283 549
e 283 909
e 283 834
e 283 970
e 284 619
e 284 864
e 285 597
e 285 299
e 285 569
e 286 338
e 286 833
e 286 290
e 286 344
e 287 470
e 287 519
e 287 643
e 287 332
e 288 616
e 288 690
e 288 390
e 289 388
e 289 677
e 289 586
e 290 586
e 291 492
e 291 947
e 291 952
e 292 967
e 292 343
e 292 816
e 293 929
e 294 318
e 294 375
e 294 331
e 294 587
e 295 705
e 295 982
e 296 930
e 296 673
e 296 734
e 296 981
e 297 586
e 297 670
e 298 403
e 299 545
e 299 665
e 300 864
e 300 342
e 300 974
e 300 395
e 300 307
e 301 756
e 301 572
e 301 897
e 301 792
e 301 758
e 302 934
e 302 883
e 302 527
e 303 782
e 303 970
e 303 396
e 303 665
e 304 763
e 304 741
e 306 995
e 306 462
e 306 781
e 307 919
e 307 922
e 307 940
e 307 748
e 309 940
e 309 324
e 309 809
e 309 858
e 309 645
e 310 401
e 310 700
e 310 585
e 312 943
e 312 331
e 313 745
e 313 897
e 314 387
e 314 735
e 314 750
e 315 961
e 315 650
e 315 406
e 315 423
e 316 886
e 316 795
e 317 549
e 317 731
e 318 648
e 318 598
e 318 744
e 319 532
e 319 855
e 319 610
e 319 581
e 320 949
e 320 989
e 320 839
e 320 455
e 322 462
e 322 449
e 323 446
e 323 744
e 323 816
e 324 506
e 324 409
e 324 688
e 324 400
e 326 695
e 326 835
e 330 635
e 331 934
e 331 424
e 331 829
e 331 771
e 331 820
e 332 377
e 332 909
e 332 614
e 332 351
e 335 985
e 335 451
e 335 744
e 336 774
e 336 397
e 336 954
e 337 406
e 337 364
e 337 652
e 337 759
e 337 975
e 337 610
e 338 661
e 338 530
e 341 359
e 341 681
e 341 824
e 342 752
e 342 910
e 343 691
e 343 565
e 343 456
e 343 675
e 343 508
e 344 945
e 344 866
e 344 775
e 345 517
e 345 535
e 345 742
e 345 797
e 345 659
e 346 803
e 346 537
e 347 962
e 349 714
e 349 524
e 349 595
e 349 460
e 350 771
e 350 548
e 351 453
e 351 707
e 351 964
e 351 482
e 352 499
e 352 701
e 352 927
e 353 998
e 353 564
e 353 478
e 354 565
e 355 601
e 355 805
e 355 700
e 356 942
e 356 714
e 358 880
e 358 398
e 359 448
e 359 456
e 359 664
e 359 574
e 359 872
e 360 862
e 360 731
e 360 864
e 361 494
e 361 713
e 362 815
e 362 989
e 362 868
e 362 553
e 362 952
e 363 687
e 363 496
e 363 957
e 364 495
e 364 440
e 364 773
e 364 462
e 364 456
e 370 584
e 370 751
e 371 997
e 371 891
e 371 659
e 373 981
e 373 646
e 373 493
e 374 878
e 375 926
e 375 512
e 377 967
e 377 614
e 377 965
e 378 870
e 380 708
e 380 758
e 381 818
e 381 853
e 382 442
e 382 387
e 382 980
e 382 972
e 383 619
e 384 576
e 385 982
e 385 965
e 385 652
e 385 762
e 386 875
e 386 824
e 386 980
e 386 812
e 387 939
e 388 744
e 389 505
e 389 914
e 390 456
e 390 542
e 391 695
e 391 716
e 392 513
e 392 872
e 394 499
e 394 569
e 394 757
e 395 807
e 395 805
e 395 994
e 395 485
e 396 762
e 396 596
e 396 570
e 396 776
e 397 469
e 398 665
e 398 729
e 398 821
e 398 896
e 399 914
e 400 489
e 400 805
e 400 827
e 400 450
e 401 456
e 401 762
e 401 766
e 402 585
e 402 512
e 402 974
e 402 998
e 402 997
e 403 931
e 403 973
e 406 474
e 406 770
e 406 748
e 406 449
e 406 783
e 407 683
e 407 658
e 407 939
e 408 752
e 408 551
e 409 708
e 409 634
e 410 676
e 410 765
e 411 808
e 411 424
e 411 633
e 412 818
e 412 792
e 412 645
e 412 824
e 413 590
e 413 893
e 413 987
e 416 736
e 416 724
e 416 990
e 416 773
e 417 781
e 417 433
e 417 618
e 417 422
e 417 418
e 417 842
e 418 843
e 418 704
e 418 982
e 418 545
e 419 906
e 419 796
e 421 724
e 421 984
e 421 676
e 422 978
e 422 496
e 423 449
e 424 925
e 424 796
e 425 931
e 425 631
e 428 616
e 428 922
e 428 524
e 430 928
e 430 921
e 432 671
e 432 543
e 432 733
e 432 828
e 433 725
e 433 591
e 433 631
e 433 816
e 434 743
e 434 873
e 436 637
e 436 870
e 436 775
e 436 676
e 437 652
e 437 745
e 437 693
e 437 762
e 438 992
e 438 830
e 439 955
e 439 748
e 440 921
e 440 962
e 440 618
e 440 756
e 442 578
e 442 959
e 442 601
e 444 929
e 444 736
e 444 793
e 444 782
e 444 866
e 445 714
e 445 929
e 446 839
e 448 855
e 448 945
e 449 974
e 450 669
e 450 761
e 450 937
e 451 513
e 451 942
e 451 521
e 451 738
e 451 537
e 452 914
e 452 672
e 452 603
e 452 776
e 453 793
e 453 819
e 454 923
e 454 633
e 454 845
e 454 557
e 454 880
e 454 957
e 454 804
e 455 461
e 455 802
e 455 886
e 455 649
e 456 605
e 458 743
e 458 634
e 458 723
e 460 739
e 461 770
e 461 567
e 461 797
e 461 758
e 464 747
e 464 745
e 464 714
e 464 792
e 466 536
e 466 822
e 468 633
e 468 780
e 469 514
e 470 874
e 470 577
e 471 907
e 471 967
e 472 876
e 472 726
e 472 475
e 473 897
e 473 474
e 474 910
e 474 879
e 475 959
e 475 527
e 476 591
e 476 829
e 476 726
e 477 942
e 478 506
e 478 816
e 481 821
e 481 616
e 481 528
e 482 816
e 482 700
e 484 978
e 484 521
e 484 604
e 485 493
e 485 729
e 485 818
e 487 777
e 487 797
e 487 734
e 488 925
e 488 952
e 489 638
e 489 494
e 490 882
e 490 673
e 490 663
e 490 802
e 490 615
e 492 791
e 492 830
e 494 659
e 494 915
e 495 564
e 495 653
e 495 534
e 496 707
e 496 889
e 497 742
e 497 986
e 497 890
e 497 796
e 498 499
e 498 516
e 498 555
e 499 749
e 499 669
e 500 608
e 500 930
e 503 922
e 503 929
e 503 536
e 504 505
e 505 742
e 505 870
e 506 701
e 506 652
e 506 678
e 507 901
e 507 962
e 507 632
e 507 803
e 507 660
e 508 585
e 509 672
e 509 610
e 509 757
e 509 583
e 510 556
e 510 959
e 510 758
e 510 784
e 512 736
e 512 971
e 513 964
e 513 931
e 513 608
e 513 564
e 514 798
e 515 853
e 515 980
e 515 578
e 516 735
e 517 734
e 519 604
e 519 735
e 520 686
e 520 547
e 522 581
e 522 639
e 522 758
e 522 967
e 523 822
e 524 886
e 524 707
e 527 723
e 528 665
e 528 702
e 530 756
e 530 829
e 532 967
e 532 771
e 533 838
e 533 715
e 534 924
e 535 677
e 536 569
e 537 647
e 537 665
e 538 614
e 538 805
e 539 789
e 540 675
e 540 628
e 540 741
e 541 571
e 541 992
e 541 809
e 542 874
e 542 957
e 543 971
e 543 603
e 547 838
e 547 727
e 548 930
e 548 648
e 549 990
e 549 780
e 549 978
e 551 771
e 551 756
e 551 828
e 552 964
e 552 815
e 552 671
e 553 959
e 553 664
e 553 739
e 553 649
e 553 685
e 555 568
e 555 712
e 556 738
e 556 628
e 556 899
e 557 963
e 559 649
e 559 997
e 559 585
e 559 883
e 561 855
e 562 572
e 562 874
e 562 654
e 562 696
e 564 689
e 564 745
e 565 620
e 565 687
e 566 997
e 566 840
e 567 698
e 567 649
e 568 883
e 569 825
e 569 987
e 569 648
e 570 947
e 570 855
e 570 870
e 570 910
e 571 589
e 571 695
e 571 706
e 571 967
e 571 981
e 572 743
e 573 694
e 574 891
e 574 852
e 576 642
e 577 833
e 577 584
e 577 748
e 578 661
e 578 897
e 579 970
e 581 919
e 581 774
e 583 642
e 583 951
e 584 611
e 584 746
e 584 982
e 585 921
e 586 947
e 587 724
e 587 616
e 589 604
e 589 646
e 589 618
e 590 818
e 590 798
e 590 843
e 591 724
e 591 922
e 596 708
e 596 858
e 597 604
e 597 777
e 598 783
e 598 876
e 598 716
e 598 872
e 599 813
e 603 806
e 604 696
e 604 843
e 605 798
e 605 990
e 605 808
e 605 730
e 607 875
e 607 746
e 607 981
e 609 759
e 609 780
e 609 644
e 609 661
e 611 701
e 611 740
e 611 668
e 611 883
e 611 743
e 611 723
e 611 975
e 614 971
e 615 891
e 615 695
e 615 940
e 615 892
e 615 719
e 616 700
e 616 704
e 619 639
e 619 766
e 619 748
e 620 928
e 621 890
e 621 924
e 621 925
e 621 878
e 626 850
e 626 953
e 628 810
e 628 886
e 632 839
e 633 970
e 633 995
e 634 952
e 634 763
e 635 740
e 635 893
e 635 649
e 635 925
e 637 947
e 637 805
e 638 774
e 638 694
e 639 951
e 639 664
e 639 978
e 641 956
e 641 961
e 641 834
e 641 835
e 641 813
e 642 875
e 642 971
e 642 731
e 643 908
e 644 919
e 645 998
e 647 822
e 648 975
e 649 918
e 650 837
e 650 662
e 651 896
e 651 989
e 651 750
e 652 658
e 653 850
e 654 705
e 654 986
e 656 675
e 656 910
e 657 771
e 657 804
e 657 882
e 658 777
e 659 961
e 660 702
e 661 775
e 662 897
e 662 979
e 662 961
e 662 745
e 662 750
e 663 887
e 664 726
e 665 791
e 668 676
e 670 914
e 673 873
e 677 744
e 677 875
e 677 927
e 677 734
e 678 887
e 681 979
e 681 954
e 684 821
e 684 924
e 684 960
e 685 973
e 686 798
e 686 821
e 687 938
e 688 835
e 688 936
e 689 992
e 689 723
e 690 793
e 691 963
e 691 809
e 693 724
e 694 780
e 696 954
e 696 803
e 696 792
e 698 896
e 698 908
e 698 821
e 701 850
e 702 797
e 702 862
e 704 994
e 704 729
e 704 705
e 704 789
e 705 811
e 708 779
e 712 775
e 713 840
e 713 986
e 719 954
e 719 931
e 719 907
e 720 744
e 723 752
e 725 748
e 725 923
e 726 902
e 727 912
e 729 936
e 733 892
e 733 857
e 736 761
e 739 810
e 739 972
e 740 779
e 740 829
e 740 838
e 741 879
e 741 947
e 744 825
e 747 964
e 751 995
e 751 855
e 751 971
e 752 840
e 755 967
e 755 881
e 755 843
e 756 898
e 756 807
e 757 828
e 758 775
e 759 949
e 759 947
e 761 833
e 762 971
e 765 901
e 766 946
e 770 803
e 773 912
e 773 908
e 776 886
e 777 846
e 779 878
e 780 815
e 780 914
e 781 810
e 781 938
e 782 897
e 783 972
e 783 943
e 784 875
e 789 910
e 789 842
e 791 821
e 793 858
e 793 953
e 793 924
e 793 939
e 795 990
e 795 798
e 795 956
e 796 809
e 797 805
e 798 971
e 802 982
e 803 978
e 803 979
e 803 830
e 804 964
e 805 873
e 805 812
e 806 840
e 807 959
e 808 947
e 808 819
e 809 899
e 810 982
e 813 915
e 814 942
e 814 898
e 816 838
e 820 856
e 822 959
e 822 929
e 824 927
e 824 899
e 826 887
e 826 908
e 826 838
e 828 967
e 829 924
e 830 936
e 833 866
e 834 927
e 835 866
e 837 951
e 839 972
e 840 891
e 845 980
e 850 949
e 850 925
e 853 918
e 856 956
e 857 901
e 857 955
e 864 987
e 868 889
e 873 919
e 873 927
e 874 937
e 875 947
e 880 962
e 887 946
e 889 963
e 890 954
e 897 902
e 897 928
e 898 959
e 901 962
e 901 922
e 901 919
e 906 951
e 906 914
e 907 915
e 908 978
e 909 985
e 910 984
e 912 918
e 914 934
e 915 934
e 919 923
e 920 994
e 920 955
e 920 946
e 921 927
e 921 980
e 922 995
e 922 974
e 926 956
e 931 975
e 936 953
e 943 997
e 945 971
e 963 965
e 973 986
e 975 997
e 978 982
