txt_Ins/graph-1000-974.txt
n 1000
e 0 472
e 0 436
e 0 201
e 0 660
e 0 275
e 0 729
e 0 970
e 0 183
e 1 301
e 1 358
e 1 465
e 1 513
e 2 932
e 2 775
e 2 954
e 2 429
e 2 857
e 2 547
e 3 323
e 3 233
e 3 325
e 4 973
e 4 600
e 4 461
e 5 196
e 5 496
e 5 979
e 7 519
e 7 481
e 7 117
e 7 570
e 8 474
e 8 63
e 8 175
e 8 637
e 8 301
e 9 876
e 9 60
e 9 50
e 9 108
e 10 730
e 10 770
e 10 394
e 10 330
e 11 527
e 11 826
e 11 423
e 11 298
e 12 520
e 12 810
e 12 189
e 12 631
e 12 954
e 13 159
e 13 29
e 13 171
e 13 682
e 13 657
e 14 172
e 14 508
e 14 209
e 14 657
e 14 362
e 15 294
e 15 827
e 15 888
e 15 167
e 16 457
e 16 558
e 16 472
e 16 836
e 17 963
e 17 382
e 17 878
e 18 919
e 18 498
e 18 511
e 18 928
e 18 164
e 18 762
e 19 192
e 19 68
e 19 895
e 19 615
e 20 668
e 20 489
e 20 686
e 20 756
e 20 45
e 20 539
e 20 556
e 21 778
e 21 983
e 21 314
e 21 474
e 21 643
e 21 699
e 21 276
e 22 173
e 22 407
e 22 901
e 22 162
e 22 844
e 23 214
e 23 743
e 23 433
e 23 909
e 23 927
e 23 527
e 24 745
e 24 989
e 24 625
e 25 539
e 25 724
e 25 390
e 25 237
e 26 395
e 26 180
e 26 585
e 27 878
e 27 697
e 27 289
e 28 344
e 28 68
e 28 336
e 29 318
e 29 705
e 29 946
e 29 345
e 29 649
e 29 115
e 30 436
e 30 939
e 30 459
e 32 383
e 32 996
e 32 849
e 33 608
e 33 645
e 33 997
e 33 80
e 33 779
e 34 376
e 34 323
e 34 55
e 34 65
e 35 640
e 35 95
e 35 682
e 36 704
e 36 64
e 36 568
e 36 788
e 36 613
e 36 220
e 36 974
e 37 962
e 37 522
e 37 929
e 37 292
e 37 896
e 37 966
e 38 361
e 38 511
e 38 582
e 38 170
e 38 437
e 38 348
e 38 469
e 38 357
e 39 285
e 39 745
e 39 978
e 39 509
e 39 208
e 40 431
e 40 567
e 40 535
e 42 55
e 42 818
e 42 250
e 42 782
e 42 370
e 43 167
e 43 782
e 43 548
e 44 133
e 44 470
e 44 595
e 44 106
e 45 955
e 45 179
e 45 329
e 45 644
e 45 929
e 45 168
e 45 335
e 47 819
e 47 538
e 47 984
e 47 376
e 48 380
e 48 216
e 48 503
e 48 488
e 48 453
e 48 900
e 48 134
e 50 646
e 50 518
e 50 456
e 50 283
e 51 772
e 51 674
e 51 503
e 51 134
e 53 257
e 53 189
e 53 125
e 53 421
e 54 476
e 54 747
e 54 546
e 54 360
e 55 231
e 55 735
e 55 224
e 55 725
e 55 120
e 55 797
e 55 271
e 55 113
e 55 953
e 55 826
e 55 417
e 56 994
e 56 537
e 56 406
e 56 383
e 56 391
e 57 956
e 57 125
e 57 926
e 59 939
e 59 620
e 59 181
e 59 90
e 59 838
e 59 529
e 60 824
e 60 664
e 60 844
e 61 303
e 61 329
e 61 278
e 61 402
e 61 588
e 61 783
e 61 652
e 61 533
e 61 572
e 63 110
e 63 406
e 63 881
e 63 544
e 64 416
e 64 293
e 64 252
e 64 102
e 64 933
e 65 449
e 65 518
e 65 280
e 65 814
e 65 891
e 65 851
e 65 529
e 66 985
e 66 600
e 66 268
e 68 252
e 68 447
e 68 265
e 68 655
e 68 900
e 68 463
e 69 942
e 69 966
e 69 872
e 69 879
e 69 316
e 71 352
e 71 895
e 71 418
e 71 959
e 71 133
e 71 96
e 71 164
e 72 515
e 72 415
e 72 481
e 73 259
e 73 449
e 73 979
e 74 258
e 74 580
e 74 861
e 75 730
e 75 219
e 75 331
e 75 423
e 75 856
e 76 683
e 76 659
e 76 959
e 77 536
e 77 583
e 77 395
e 77 487
e 77 453
e 77 762
e 79 213
e 79 820
e 79 516
e 79 724
e 80 336
e 80 142
e 80 286
e 80 962
e 84 561
e 84 762
e 84 656
e 84 495
e 84 838
e 86 345
e 86 344
e 86 275
e 86 682
e 87 838
e 87 627
e 87 662
e 87 410
e 87 112
e 90 220
e 90 275
e 90 919
e 90 183
e 90 520
e 93 476
e 93 363
e 93 237
e 93 321
e 94 748
e 94 741
e 94 226
e 95 474
e 95 101
e 96 706
e 96 179
e 96 450
e 97 728
e 97 353
e 97 377
e 97 595
e 97 739
e 98 542
e 98 206
e 98 834
e 98 475
e 98 644
e 99 533
e 99 813
e 99 101
e 100 175
e 100 803
e 100 447
e 100 455
e 101 420
e 101 351
e 101 282
e 101 475
e 101 823
e 102 373
e 102 199
e 102 329
e 102 972
e 102 263
e 104 475
e 104 523
e 104 948
e 104 460
e 104 206
e 106 571
e 106 447
e 106 237
e 108 740
e 108 996
e 108 655
e 109 739
e 109 455
e 109 932
e 110 658
e 110 266
e 110 790
e 110 297
e 110 394
e 112 348
e 112 802
e 112 619
e 113 477
e 113 625
e 113 542
e 113 173
e 113 804
e 113 159
e 114 354
e 114 962
e 114 456
e 114 921
e 114 351
e 115 214
e 115 422
e 115 443
e 115 387
e 117 388
e 117 179
e 117 782
e 117 305
e 117 416
e 118 472
e 118 491
e 118 937
e 118 196
e 120 603
e 120 330
e 120 845
e 122 565
e 122 187
e 122 551
e 122 369
e 122 719
e 122 334
e 122 471
e 122 878
e 122 809
e 122 791
e 123 762
e 123 598
e 123 192
e 123 359
e 123 344
e 124 159
e 124 492
e 124 167
e 124 507
e 124 714
e 125 895
e 125 265
e 125 515
e 125 651
e 128 436
e 128 263
e 128 911
e 128 842
e 128 286
e 128 383
e 129 966
e 129 373
e 129 630
e 129 410
e 129 143
e 129 696
e 129 382
e 133 954
e 133 257
e 133 932
e 133 507
e 133 293
e 133 770
e 133 588
e 133 757
e 133 875
e 134 156
e 134 147
e 134 802
e 134 484
e 136 589
e 136 346
e 136 650
e 136 671
e 138 588
e 138 329
e 138 580
e 139 508
e 139 303
e 139 689
e 139 930
e 139 682
e 139 216
e 139 585
e 139 409
e 140 851
e 140 344
e 140 760
e 140 715
e 142 563
e 142 470
e 143 578
e 143 619
e 143 891
e 143 875
e 145 273
e 145 245
e 145 385
e 146 714
e 146 857
e 146 959
e 147 810
e 147 914
e 147 230
e 147 183
e 147 504
e 147 770
e 151 244
e 151 431
e 151 205
e 152 580
e 152 219
e 152 677
e 153 362
e 153 292
e 153 741
e 153 700
e 153 926
e 153 779
e 154 648
e 154 973
e 154 444
e 156 993
e 156 619
e 156 773
e 156 260
e 156 764
e 159 279
e 159 399
e 159 217
e 159 963
e 159 919
e 159 438
e 160 531
e 160 977
e 160 867
e 160 892
e 160 383
e 160 305
e 161 317
e 161 217
e 161 390
e 161 170
e 162 984
e 162 803
e 162 805
e 162 670
e 164 849
e 165 722
e 165 420
e 165 663
e 167 504
e 167 584
e 167 890
e 167 829
e 167 226
e 167 520
e 168 924
e 168 829
e 169 706
e 169 518
e 169 405
e 169 293
e 169 790
e 170 431
e 170 302
e 170 495
e 170 774
e 171 330
e 171 684
e 171 529
e 171 598
e 171 945
e 171 456
e 172 252
e 172 723
e 172 959
e 172 437
e 173 740
e 173 878
e 173 728
e 173 336
e 173 398
e 175 927
e 179 963
e 179 398
e 180 194
e 180 299
e 180 594
e 180 269
e 181 855
e 181 250
e 182 259
e 182 409
e 182 818
e 182 315
e 182 534
e 182 394
e 182 547
e 183 342
e 183 285
e 183 301
e 183 960
e 183 769
e 183 427
e 184 747
e 184 647
e 184 656
e 187 397
e 187 933
e 188 566
e 188 769
e 188 208
e 189 978
e 189 402
e 189 959
e 189 391
e 189 874
e 189 778
e 191 518
e 191 575
e 191 219
e 191 825
e 191 405
e 192 905
e 193 208
e 193 652
e 193 244
e 194 299
e 194 955
e 194 505
e 195 890
e 195 689
e 195 732
e 195 532
e 195 924
e 195 569
e 196 618
e 196 572
e 196 917
e 196 204
e 197 499
e 197 444
e 197 719
e 198 685
e 198 271
e 198 386
e 198 727
e 199 298
e 199 412
e 199 824
e 199 286
e 199 289
e 199 686
e 200 606
e 200 667
e 200 729
e 200 216
e 201 636
e 201 541
e 201 560
e 201 588
e 203 296
e 203 806
e 203 895
e 203 445
e 204 661
e 204 792
e 204 526
e 204 854
e 204 880
e 204 675
e 205 642
e 205 564
e 205 663
e 205 692
e 205 669
e 205 876
e 206 880
e 208 946
e 208 346
e 208 264
e 209 377
e 209 357
e 209 705
e 209 312
e 209 274
e 209 564
e 209 554
e 210 582
e 210 274
e 210 531
e 210 746
e 210 424
e 213 727
e 213 344
e 214 433
e 214 495
e 214 827
e 214 688
e 215 705
e 215 803
e 215 503
e 215 450
e 216 927
e 216 842
e 216 515
e 216 876
e 216 264
e 217 807
e 217 730
e 217 534
e 218 231
e 218 667
e 218 963
e 218 529
e 219 391
e 219 966
e 219 534
e 220 390
e 221 791
e 221 520
e 221 689
e 221 908
e 221 960
e 222 432
e 222 451
e 222 362
e 223 929
e 223 901
e 223 513
e 224 711
e 224 382
e 224 663
e 225 966
e 225 381
e 225 631
e 225 812
e 226 499
e 226 925
e 228 534
e 228 743
e 228 667
e 229 935
e 229 600
e 229 396
e 230 826
e 230 508
e 230 411
e 230 972
e 231 696
e 231 323
e 233 983
e 233 418
e 233 294
e 233 296
e 233 353
e 235 856
e 235 260
e 235 357
e 237 744
e 237 984
e 237 311
e 237 939
e 237 643
e 237 348
e 238 841
e 238 244
e 238 776
e 238 892
e 239 693
e 239 315
e 239 701
e 239 276
e 239 319
e 243 318
e 243 926
e 243 379
e 243 825
e 243 267
e 244 726
e 244 513
e 244 939
e 244 575
e 244 727
e 244 645
e 244 594
e 244 319
e 244 855
e 245 570
e 245 951
e 245 355
e 245 845
e 247 342
e 247 851
e 247 383
e 247 448
e 247 589
e 247 863
e 247 309
e 247 397
e 247 396
e 250 674
e 250 384
e 250 984
e 250 350
e 251 619
e 251 811
e 251 980
e 251 582
e 252 677
e 252 451
e 252 880
e 252 566
e 253 809
e 253 460
e 253 764
e 256 467
e 256 826
e 256 538
e 257 778
e 257 522
e 257 694
e 258 337
e 258 788
e 258 274
e 259 576
e 259 282
e 259 560
e 259 696
e 259 756
e 259 303
e 259 737
e 260 925
e 260 401
e 263 355
e 263 467
e 264 538
e 264 700
e 264 433
e 264 475
e 265 701
e 265 932
e 266 959
e 266 662
e 266 607
e 266 936
e 267 361
e 267 745
e 267 461
e 268 979
e 268 483
e 268 311
e 269 390
e 269 900
e 269 437
e 271 408
e 271 770
e 271 942
e 271 578
e 271 350
e 271 878
e 272 315
e 272 693
e 272 722
e 273 908
e 273 748
e 274 631
e 274 630
e 274 295
e 274 360
e 274 548
e 274 743
e 274 513
e 274 297
e 275 852
e 275 685
e 275 423
e 276 653
e 276 695
e 276 588
e 278 988
e 278 505
e 279 582
e 279 468
e 279 657
e 279 738
e 280 472
e 280 499
e 280 349
e 282 379
e 282 548
e 282 908
e 282 833
e 282 969
e 283 618
e 283 863
e 284 596
e 284 298
e 284 568
e 285 337
e 285 832
e 285 289
e 285 343
e 286 469
e 286 518
e 286 642
e 286 331
e 287 615
e 287 689
e 287 389
e 288 387
e 288 676
e 288 585
e 289 585
e 290 491
e 290 946
e 290 951
e 291 966
e 291 342
e 291 815
e 292 928
e 293 317
e 293 374
e 293 330
e 293 586
e 294 704
e 294 981
e 295 929
e 295 672
e 295 733
e 295 980
e 296 585
e 296 669
e 297 402
e 298 544
e 298 664
e 299 863
e 299 341
e 299 973
e 299 394
e 299 306
e 300 755
e 300 571
e 300 896
e 300 791
e 300 757
e 301 933
e 301 882
e 301 526
e 302 781
e 302 969
e 302 395
e 302 664
e 303 762
e 303 740
e 305 994
e 305 461
e 305 780
e 306 918
e 306 921
e 306 939
e 306 747
e 308 939
e 308 323
e 308 808
e 308 857
e 308 644
e 309 400
e 309 699
e 309 584
e 311 942
e 311 330
e 312 744
e 312 896
e 313 386
e 313 734
e 313 749
e 314 960
e 314 649
e 314 405
e 314 422
e 315 885
e 315 794
e 316 548
e 316 730
e 317 647
e 317 597
e 317 743
e 318 531
e 318 854
e 318 609
e 318 580
e 319 948
e 319 988
e 319 838
e 319 454
e 321 461
e 321 448
e 322 445
e 322 743
e 322 815
e 323 505
e 323 408
e 323 687
e 323 399
e 325 694
e 325 834
e 329 634
e 330 933
e 330 423
e 330 828
e 330 770
e 330 819
e 331 376
e 331 908
e 331 613
e 331 350
e 334 984
e 334 450
e 334 743
e 335 773
e 335 396
e 335 953
e 336 405
e 336 363
e 336 651
e 336 758
e 336 974
e 336 609
e 337 660
e 337 529
e 340 358
e 340 680
e 340 823
e 341 751
e 341 909
e 342 690
e 342 564
e 342 455
e 342 674
e 342 507
e 343 944
e 343 865
e 343 774
e 344 516
e 344 534
e 344 741
e 344 796
e 344 658
e 345 802
e 345 536
e 346 961
e 348 713
e 348 523
e 348 594
e 348 459
e 349 770
e 349 547
e 350 452
e 350 706
e 350 963
e 350 481
e 351 498
e 351 700
e 351 926
e 352 997
e 352 563
e 352 477
e 353 564
e 354 600
e 354 804
e 354 699
e 355 941
e 355 713
e 357 879
e 357 397
e 358 447
e 358 455
e 358 663
e 358 573
e 358 871
e 359 861
e 359 730
e 359 863
e 360 493
e 360 712
e 361 814
e 361 988
e 361 867
e 361 552
e 361 951
e 362 686
e 362 495
e 362 956
e 363 494
e 363 439
e 363 772
e 363 461
e 363 455
e 369 583
e 369 750
e 370 996
e 370 890
e 370 658
e 372 980
e 372 645
e 372 492
e 373 877
e 374 925
e 374 511
e 376 966
e 376 613
e 376 964
e 377 869
e 379 707
e 379 757
e 380 817
e 380 852
e 381 441
e 381 386
e 381 979
e 381 971
e 382 618
e 383 575
e 384 981
e 384 964
e 384 651
e 384 761
e 385 874
e 385 823
e 385 979
e 385 811
e 386 938
e 387 743
e 388 504
e 388 913
e 389 455
e 389 541
e 390 694
e 390 715
e 391 512
e 391 871
e 393 498
e 393 568
e 393 756
e 394 806
e 394 804
e 394 993
e 394 484
e 395 761
e 395 595
e 395 569
e 395 775
e 396 468
e 397 664
e 397 728
e 397 820
e 397 895
e 398 913
e 399 488
e 399 804
e 399 826
e 399 449
e 400 455
e 400 761
e 400 765
e 401 584
e 401 511
e 401 973
e 401 997
e 401 996
e 402 930
e 402 972
e 405 473
e 405 769
e 405 747
e 405 448
e 405 782
e 406 682
e 406 657
e 406 938
e 407 751
e 407 550
e 408 707
e 408 633
e 409 675
e 409 764
e 410 807
e 410 423
e 410 632
e 411 817
e 411 791
e 411 644
e 411 823
e 412 589
e 412 892
e 412 986
e 415 735
e 415 723
e 415 989
e 415 772
e 416 780
e 416 432
e 416 617
e 416 421
e 416 417
e 416 841
e 417 842
e 417 703
e 417 981
e 417 544
e 418 905
e 418 795
e 420 723
e 420 983
e 420 675
e 421 977
e 421 495
e 422 448
e 423 924
e 423 795
e 424 930
e 424 630
e 427 615
e 427 921
e 427 523
e 429 927
e 429 920
e 431 670
e 431 542
e 431 732
e 431 827
e 432 724
e 432 590
e 432 630
e 432 815
e 433 742
e 433 872
e 435 636
e 435 869
e 435 774
e 435 675
e 436 651
e 436 744
e 436 692
e 436 761
e 437 991
e 437 829
e 438 954
e 438 747
e 439 920
e 439 961
e 439 617
e 439 755
e 441 577
e 441 958
e 441 600
e 443 928
e 443 735
e 443 792
e 443 781
e 443 865
e 444 713
e 444 928
e 445 838
e 447 854
e 447 944
e 448 973
e 449 668
e 449 760
e 449 936
e 450 512
e 450 941
e 450 520
e 450 737
e 450 536
e 451 913
e 451 671
e 451 602
e 451 775
e 452 792
e 452 818
e 453 922
e 453 632
e 453 844
e 453 556
e 453 879
e 453 956
e 453 803
e 454 460
e 454 801
e 454 885
e 454 648
e 455 604
e 457 742
e 457 633
e 457 722
e 459 738
e 460 769
e 460 566
e 460 796
e 460 757
e 463 746
e 463 744
e 463 713
e 463 791
e 465 535
e 465 821
e 467 632
e 467 779
e 468 513
e 469 873
e 469 576
e 470 906
e 470 966
e 471 875
e 471 725
e 471 474
e 472 896
e 472 473
e 473 909
e 473 878
e 474 958
e 474 526
e 475 590
e 475 828
e 475 725
e 476 941
e 477 505
e 477 815
e 480 820
e 480 615
e 480 527
e 481 815
e 481 699
e 483 977
e 483 520
e 483 603
e 484 492
e 484 728
e 484 817
e 486 776
e 486 796
e 486 733
e 487 924
e 487 951
e 488 637
e 488 493
e 489 881
e 489 672
e 489 662
e 489 801
e 489 614
e 491 790
e 491 829
e 493 658
e 493 914
e 494 563
e 494 652
e 494 533
e 495 706
e 495 888
e 496 741
e 496 985
e 496 889
e 496 795
e 497 498
e 497 515
e 497 554
e 498 748
e 498 668
e 499 607
e 499 929
e 502 921
e 502 928
e 502 535
e 503 504
e 504 741
e 504 869
e 505 700
e 505 651
e 505 677
e 506 900
e 506 961
e 506 631
e 506 802
e 506 659
e 507 584
e 508 671
e 508 609
e 508 756
e 508 582
e 509 555
e 509 958
e 509 757
e 509 783
e 511 735
e 511 970
e 512 963
e 512 930
e 512 607
e 512 563
e 513 797
e 514 852
e 514 979
e 514 577
e 515 734
e 516 733
e 518 603
e 518 734
e 519 685
e 519 546
e 521 580
e 521 638
e 521 757
e 521 966
e 522 821
e 523 885
e 523 706
e 526 722
e 527 664
e 527 701
e 529 755
e 529 828
e 531 966
e 531 770
e 532 837
e 532 714
e 533 923
e 534 676
e 535 568
e 536 646
e 536 664
e 537 613
e 537 804
e 538 788
e 539 674
e 539 627
e 539 740
e 540 570
e 540 991
e 540 808
e 541 873
e 541 956
e 542 970
e 542 602
e 546 837
e 546 726
e 547 929
e 547 647
e 548 989
e 548 779
e 548 977
e 550 770
e 550 755
e 550 827
e 551 963
e 551 814
e 551 670
e 552 958
e 552 663
e 552 738
e 552 648
e 552 684
e 554 567
e 554 711
e 555 737
e 555 627
e 555 898
e 556 962
e 558 648
e 558 996
e 558 584
e 558 882
e 560 854
e 561 571
e 561 873
e 561 653
e 561 695
e 563 688
e 563 744
e 564 619
e 564 686
e 565 996
e 565 839
e 566 697
e 566 648
e 567 882
e 568 824
e 568 986
e 568 647
e 569 946
e 569 854
e 569 869
e 569 909
e 570 588
e 570 694
e 570 705
e 570 966
e 570 980
e 571 742
e 572 693
e 573 890
e 573 851
e 575 641
e 576 832
e 576 583
e 576 747
e 577 660
e 577 896
e 578 969
e 580 918
e 580 773
e 582 641
e 582 950
e 583 610
e 583 745
e 583 981
e 584 920
e 585 946
e 586 723
e 586 615
e 588 603
e 588 645
e 588 617
e 589 817
e 589 797
e 589 842
e 590 723
e 590 921
e 595 707
e 595 857
e 596 603
e 596 776
e 597 782
e 597 875
e 597 715
e 597 871
e 598 812
e 602 805
e 603 695
e 603 842
e 604 797
e 604 989
e 604 807
e 604 729
e 606 874
e 606 745
e 606 980
e 608 758
e 608 779
e 608 643
e 608 660
e 610 700
e 610 739
e 610 667
e 610 882
e 610 742
e 610 722
e 610 974
e 613 970
e 614 890
e 614 694
e 614 939
e 614 891
e 614 718
e 615 699
e 615 703
e 618 638
e 618 765
e 618 747
e 619 927
e 620 889
e 620 923
e 620 924
e 620 877
e 625 849
e 625 952
e 627 809
e 627 885
e 631 838
e 632 969
e 632 994
e 633 951
e 633 762
e 634 739
e 634 892
e 634 648
e 634 924
e 636 946
e 636 804
e 637 773
e 637 693
e 638 950
e 638 663
e 638 977
e 640 955
e 640 960
e 640 833
e 640 834
e 640 812
e 641 874
e 641 970
e 641 730
e 642 907
e 643 918
e 644 997
e 646 821
e 647 974
e 648 917
e 649 836
e 649 661
e 650 895
e 650 988
e 650 749
e 651 657
e 652 849
e 653 704
e 653 985
e 655 674
e 655 909
e 656 770
e 656 803
e 656 881
e 657 776
e 658 960
e 659 701
e 660 774
e 661 896
e 661 978
e 661 960
e 661 744
e 661 749
e 662 886
e 663 725
e 664 790
e 667 675
e 669 913
e 672 872
e 676 743
e 676 874
e 676 926
e 676 733
e 677 886
e 680 978
e 680 953
e 683 820
e 683 923
e 683 959
e 684 972
e 685 797
e 685 820
e 686 937
e 687 834
e 687 935
e 688 991
e 688 722
e 689 792
e 690 962
e 690 808
e 692 723
e 693 779
e 695 953
e 695 802
e 695 791
e 697 895
e 697 907
e 697 820
e 700 849
e 701 796
e 701 861
e 703 993
e 703 728
e 703 704
e 703 788
e 704 810
e 707 778
e 711 774
e 712 839
e 712 985
e 718 953
e 718 930
e 718 906
e 719 743
e 722 751
e 724 747
e 724 922
e 725 901
e 726 911
e 728 935
e 732 891
e 732 856
e 735 760
e 738 809
e 738 971
e 739 778
e 739 828
e 739 837
e 740 878
e 740 946
e 743 824
e 746 963
e 750 994
e 750 854
e 750 970
e 751 839
e 754 966
e 754 880
e 754 842
e 755 897
e 755 806
e 756 827
e 757 774
e 758 948
e 758 946
e 760 832
e 761 970
e 764 900
e 765 945
e 769 802
e 772 911
e 772 907
e 775 885
e 776 845
e 778 877
e 779 814
e 779 913
e 780 809
e 780 937
e 781 896
e 782 971
e 782 942
e 783 874
e 788 909
e 788 841
e 790 820
e 792 857
e 792 952
e 792 923
e 792 938
e 794 989
e 794 797
e 794 955
e 795 808
e 796 804
e 797 970
e 801 981
e 802 977
e 802 978
e 802 829
e 803 963
e 804 872
e 804 811
e 805 839
e 806 958
e 807 946
e 807 818
e 808 898
e 809 981
e 812 914
e 813 941
e 813 897
e 815 837
e 819 855
e 821 958
e 821 928
e 823 926
e 823 898
e 825 886
e 825 907
e 825 837
e 827 966
e 828 923
e 829 935
e 832 865
e 833 926
e 834 865
e 836 950
e 838 971
e 839 890
e 844 979
e 849 948
e 849 924
e 852 917
e 855 955
e 856 900
e 856 954
e 863 986
e 867 888
e 872 918
e 872 926
e 873 936
e 874 946
e 879 961
e 886 945
e 888 962
e 889 953
e 896 901
e 896 927
e 897 958
e 900 961
e 900 921
e 900 918
e 905 950
e 905 913
e 906 914
e 907 977
e 908 984
e 909 983
e 911 917
e 913 933
e 914 933
e 918 922
e 919 993
e 919 954
e 919 945
e 920 926
e 920 979
e 921 994
e 921 973
e 925 955
e 930 974
e 935 952
e 942 996
e 944 970
e 962 964
e 972 985
e 974 996
e 977 981
